\ Model IIS_copy
\ LP format - for model browsing. Use MPS format to capture full model detail.
Minimize
 
Subject To
 lower_bound_1: x[0] >= 1
 lower_bound_2: x[1] >= 2
 R2: x[0] + x[1] <= 2.5
Bounds
 x[0] free
 x[1] free
End
